c Reduced graph for r125.1_0 generated by Cyril Grelier
p edge 106 187
e 1 2
e 1 3
e 1 5
e 1 15
e 1 17
e 1 28
e 1 33
e 1 38
e 2 3
e 2 4
e 2 5
e 2 13
e 2 17
e 2 18
e 2 24
e 3 5
e 3 13
e 3 17
e 3 24
e 3 33
e 4 13
e 4 18
e 4 24
e 4 31
e 4 46
e 5 13
e 5 17
e 5 33
e 6 10
e 6 12
e 6 14
e 6 49
e 6 53
e 6 56
e 7 9
e 7 19
e 7 21
e 7 30
e 7 40
e 7 44
e 8 23
e 8 25
e 8 26
e 8 42
e 8 47
e 8 65
e 9 11
e 9 19
e 9 20
e 9 30
e 9 45
e 10 12
e 10 14
e 10 49
e 10 66
e 10 68
e 11 20
e 11 30
e 11 45
e 11 48
e 11 57
e 12 14
e 12 49
e 12 66
e 12 68
e 13 18
e 13 24
e 14 49
e 14 53
e 14 56
e 15 28
e 15 38
e 15 48
e 15 57
e 16 29
e 16 32
e 16 34
e 16 43
e 16 51
e 17 33
e 18 24
e 18 101
e 19 21
e 19 30
e 19 40
e 20 30
e 20 45
e 20 75
e 21 44
e 21 54
e 21 74
e 22 35
e 22 36
e 22 37
e 22 39
e 22 55
e 23 25
e 23 26
e 23 42
e 23 47
e 25 26
e 25 42
e 25 47
e 26 47
e 26 60
e 27 72
e 27 84
e 27 85
e 27 87
e 27 102
e 28 31
e 28 38
e 28 50
e 29 32
e 29 34
e 29 43
e 29 51
e 31 41
e 31 46
e 31 50
e 32 34
e 32 43
e 34 61
e 35 36
e 35 37
e 35 39
e 36 37
e 36 39
e 37 39
e 38 48
e 40 44
e 40 98
e 41 46
e 41 50
e 41 105
e 42 65
e 43 51
e 44 54
e 45 75
e 46 50
e 48 57
e 52 79
e 52 96
e 52 98
e 53 56
e 54 74
e 55 73
e 55 77
e 58 69
e 58 70
e 58 97
e 59 82
e 59 88
e 59 95
e 60 61
e 60 76
e 61 76
e 62 78
e 62 92
e 62 93
e 63 64
e 63 71
e 63 91
e 64 91
e 64 97
e 65 103
e 66 68
e 67 71
e 67 90
e 67 100
e 69 70
e 72 87
e 73 77
e 78 92
e 79 96
e 80 86
e 80 89
e 81 94
e 81 99
e 82 83
e 83 106
e 84 85
e 86 89
e 88 95
e 90 100
e 93 104
e 94 99
